NAME : random_11
COMMENT : 50 random nodes
TYPE : TSP
DIMENSION : 50
EDGE_WEIGHT_TYPE : EUC_2D
NODE_COORD_SECTION
1 855 830
2 591 100
3 836 243
4 489 277
5 145 777
6 132 235
7 830 131
8 803 543
9 93 867
10 997 603
11 29 787
12 641 973
13 261 320
14 497 34
15 345 831
16 391 6
17 397 686
18 480 761
19 386 272
20 770 259
21 970 706
22 81 749
23 163 507
24 612 809
25 464 532
26 888 733
27 506 87
28 503 737
29 692 396
30 23 904
31 436 210
32 92 717
33 779 868
34 346 795
35 110 342
36 996 49
37 713 93
38 756 391
39 696 433
40 884 372
41 137 274
42 265 780
43 451 612
44 624 600
45 754 828
46 419 84
47 688 938
48 581 42
49 431 544
50 364 496
EOF